db/data/25270183162685717695617915459866114237.z3.out
-------------------
2500.122828145
